% Logging successfully configured
%%%mzn-stat: initTime=0.025222465
%%%mzn-stat: objective=1144
%%%mzn-stat: nodes=1280
%%%mzn-stat: restarts=0
%%%mzn-stat: peakDepth=1240
%%%mzn-stat: solveTime=0.013946603
%%%mzn-stat: variables=2714
%%%mzn-stat: propagators=12975
%%%mzn-stat: failures=13
%%%mzn-stat: propagations=77003
%%%mzn-stat: nogoods=13
%%%mzn-stat: numAtomicConstraintsPropagated=0
%%%mzn-stat: circuitNumber11176PropagationsThatFoundConflict=3
%%%mzn-stat: circuitNumber11176TotalFixedEdgesAtConflict=378
%%%mzn-stat: circuitNumber11176NumberOfConflicts=3
%%%mzn-stat: circuitNumber11176PropagationsThatPruned=3
%%%mzn-stat: circuitNumber11176PropagationsTotal=124
%%%mzn-stat: AverageConflictSize=6.076923076923077
%%%mzn-stat: NumUnitNogoodsLearned=0
%%%mzn-stat: AverageLearnedNogoodLength=38.84615384615385
%%%mzn-stat: AverageBacktrackAmount=0
%%%mzn-stat: AverageLbd=25.692307692307693
%%%mzn-stat: 2AutonomousSearchNumBackupCalled=1160
%%%mzn-stat: 2AutonomousSearchNumPredicatesRemoved=0
%%%mzn-stat: 2AutonomousSearchNumCalls=1161
%%%mzn-stat: 2AutonomousSearchNumPredicatesAdded=3212
%%%mzn-stat: 2AutonomousSearchAverageSizeOfHeap=2.7665805340223946
%%%mzn-stat: 2AutonomousSearchNumAssignedPredicatesEncountered=3212
%%%mzn-stat-end
maxleg = 1144;
succ = array1d(1..150,[7, 3, 10, 14, 2, 36, 46, 4, 11, 79, 5, 6, 43, 13, 92, 1, 57, 19, 15, 18, 8, 32, 25, 75, 82, 12, 17, 58, 24, 62, 23, 64, 55, 40, 20, 47, 61, 28, 53, 95, 29, 9, 22, 27, 90, 31, 45, 69, 70, 68, 48, 54, 16, 42, 73, 98, 33, 76, 72, 119, 56, 34, 85, 89, 44, 91, 41, 145, 81, 59, 93, 71, 94, 49, 125, 63, 101, 116, 141, 96, 130, 123, 100, 127, 30, 108, 142, 139, 88, 121, 74, 50, 115, 148, 114, 122, 37, 147, 52, 111, 38, 104, 106, 110, 21, 117, 128, 67, 146, 39, 78, 132, 65, 129, 149, 112, 133, 60, 26, 86, 136, 144, 120, 140, 35, 87, 97, 131, 134, 77, 51, 105, 138, 118, 126, 137, 124, 84, 113, 150, 66, 99, 83, 107, 80, 103, 102, 109, 143, 135]);
% time elapsed: 0.60 s
----------
%%%mzn-stat: initTime=0.025222465
%%%mzn-stat: objective=1128
%%%mzn-stat: nodes=2504
%%%mzn-stat: restarts=0
%%%mzn-stat: peakDepth=1240
%%%mzn-stat: solveTime=0.022793354
%%%mzn-stat: variables=2714
%%%mzn-stat: propagators=12975
%%%mzn-stat: failures=16
%%%mzn-stat: propagations=112509
%%%mzn-stat: nogoods=16
%%%mzn-stat: numAtomicConstraintsPropagated=0
%%%mzn-stat: circuitNumber11176PropagationsThatFoundConflict=4
%%%mzn-stat: circuitNumber11176TotalFixedEdgesAtConflict=528
%%%mzn-stat: circuitNumber11176NumberOfConflicts=4
%%%mzn-stat: circuitNumber11176PropagationsThatPruned=4
%%%mzn-stat: circuitNumber11176PropagationsTotal=209
%%%mzn-stat: AverageConflictSize=11.3125
%%%mzn-stat: NumUnitNogoodsLearned=0
%%%mzn-stat: AverageLearnedNogoodLength=45.5
%%%mzn-stat: AverageBacktrackAmount=0
%%%mzn-stat: AverageLbd=28.625
%%%mzn-stat: 2AutonomousSearchNumBackupCalled=2300
%%%mzn-stat: 2AutonomousSearchNumPredicatesRemoved=0
%%%mzn-stat: 2AutonomousSearchNumCalls=2302
%%%mzn-stat: 2AutonomousSearchNumPredicatesAdded=4418
%%%mzn-stat: 2AutonomousSearchAverageSizeOfHeap=3.088618592528236
%%%mzn-stat: 2AutonomousSearchNumAssignedPredicatesEncountered=7110
%%%mzn-stat-end
maxleg = 1128;
succ = array1d(1..150,[7, 3, 10, 14, 2, 36, 46, 4, 19, 79, 5, 6, 43, 13, 92, 1, 57, 39, 15, 18, 8, 32, 25, 75, 82, 12, 17, 58, 24, 62, 23, 64, 55, 40, 20, 47, 61, 28, 53, 95, 29, 9, 22, 27, 90, 31, 45, 69, 70, 68, 48, 54, 16, 42, 73, 98, 33, 76, 72, 119, 56, 34, 85, 89, 44, 91, 41, 145, 11, 59, 93, 71, 81, 49, 125, 63, 101, 26, 141, 96, 130, 102, 100, 127, 123, 108, 142, 139, 84, 121, 74, 50, 115, 148, 114, 122, 37, 147, 52, 111, 38, 104, 106, 110, 21, 117, 128, 67, 146, 135, 78, 132, 65, 129, 88, 112, 133, 60, 30, 134, 136, 144, 120, 140, 35, 87, 97, 131, 116, 77, 51, 105, 138, 86, 126, 137, 124, 118, 113, 150, 66, 99, 83, 107, 149, 103, 80, 109, 143, 94]);
% time elapsed: 0.60 s
----------
%%%mzn-stat: initTime=0.025222465
%%%mzn-stat: objective=1025
%%%mzn-stat: nodes=3736
%%%mzn-stat: restarts=0
%%%mzn-stat: peakDepth=1240
%%%mzn-stat: solveTime=0.040727744
%%%mzn-stat: variables=2714
%%%mzn-stat: propagators=12975
%%%mzn-stat: failures=31
%%%mzn-stat: propagations=183722
%%%mzn-stat: nogoods=31
%%%mzn-stat: numAtomicConstraintsPropagated=0
%%%mzn-stat: circuitNumber11176PropagationsThatFoundConflict=10
%%%mzn-stat: circuitNumber11176TotalFixedEdgesAtConflict=1428
%%%mzn-stat: circuitNumber11176NumberOfConflicts=10
%%%mzn-stat: circuitNumber11176PropagationsThatPruned=7
%%%mzn-stat: circuitNumber11176PropagationsTotal=324
%%%mzn-stat: AverageConflictSize=17.322580645161292
%%%mzn-stat: NumUnitNogoodsLearned=0
%%%mzn-stat: AverageLearnedNogoodLength=47.38709677419355
%%%mzn-stat: AverageBacktrackAmount=0
%%%mzn-stat: AverageLbd=30.483870967741936
%%%mzn-stat: 2AutonomousSearchNumBackupCalled=3422
%%%mzn-stat: 2AutonomousSearchNumPredicatesRemoved=0
%%%mzn-stat: 2AutonomousSearchNumCalls=3425
%%%mzn-stat: 2AutonomousSearchNumPredicatesAdded=8804
%%%mzn-stat: 2AutonomousSearchAverageSizeOfHeap=3.5445255474452555
%%%mzn-stat: 2AutonomousSearchNumAssignedPredicatesEncountered=12140
%%%mzn-stat-end
maxleg = 1025;
succ = array1d(1..150,[7, 3, 10, 14, 2, 36, 46, 4, 19, 79, 5, 6, 43, 13, 92, 1, 57, 39, 15, 18, 8, 32, 25, 75, 82, 12, 17, 58, 24, 62, 23, 64, 55, 40, 20, 47, 61, 28, 53, 95, 29, 9, 22, 27, 90, 31, 45, 69, 70, 68, 48, 54, 16, 42, 73, 98, 33, 76, 72, 119, 56, 34, 85, 89, 44, 91, 41, 145, 11, 59, 93, 71, 81, 49, 125, 80, 101, 116, 141, 96, 130, 102, 100, 127, 123, 109, 142, 139, 88, 121, 74, 50, 115, 148, 114, 122, 37, 147, 108, 111, 38, 104, 106, 110, 21, 35, 128, 67, 146, 135, 78, 132, 65, 129, 149, 112, 133, 60, 26, 86, 136, 144, 120, 140, 150, 87, 97, 131, 134, 77, 51, 105, 138, 118, 126, 137, 52, 84, 63, 113, 66, 99, 83, 107, 117, 103, 124, 30, 143, 94]);
% time elapsed: 0.60 s
----------
%%%mzn-stat: initTime=0.025222465
%%%mzn-stat: objective=1020
%%%mzn-stat: nodes=4975
%%%mzn-stat: restarts=0
%%%mzn-stat: peakDepth=1240
%%%mzn-stat: solveTime=0.066994316
%%%mzn-stat: variables=2714
%%%mzn-stat: propagators=12975
%%%mzn-stat: failures=50
%%%mzn-stat: propagations=265872
%%%mzn-stat: nogoods=50
%%%mzn-stat: numAtomicConstraintsPropagated=0
%%%mzn-stat: circuitNumber11176PropagationsThatFoundConflict=17
%%%mzn-stat: circuitNumber11176TotalFixedEdgesAtConflict=2478
%%%mzn-stat: circuitNumber11176NumberOfConflicts=17
%%%mzn-stat: circuitNumber11176PropagationsThatPruned=10
%%%mzn-stat: circuitNumber11176PropagationsTotal=436
%%%mzn-stat: AverageConflictSize=25.18
%%%mzn-stat: NumUnitNogoodsLearned=0
%%%mzn-stat: AverageLearnedNogoodLength=53.34
%%%mzn-stat: AverageBacktrackAmount=0
%%%mzn-stat: AverageLbd=33.38
%%%mzn-stat: 2AutonomousSearchNumBackupCalled=4552
%%%mzn-stat: 2AutonomousSearchNumPredicatesRemoved=0
%%%mzn-stat: 2AutonomousSearchNumCalls=4556
%%%mzn-stat: 2AutonomousSearchNumPredicatesAdded=13010
%%%mzn-stat: 2AutonomousSearchAverageSizeOfHeap=3.846795434591747
%%%mzn-stat: 2AutonomousSearchNumAssignedPredicatesEncountered=17526
%%%mzn-stat-end
maxleg = 1020;
succ = array1d(1..150,[7, 3, 10, 14, 2, 36, 46, 4, 19, 79, 5, 6, 43, 13, 92, 1, 57, 39, 15, 18, 8, 32, 25, 75, 82, 12, 17, 58, 71, 62, 23, 64, 55, 24, 20, 47, 61, 28, 53, 95, 29, 9, 22, 27, 90, 31, 45, 69, 70, 68, 48, 54, 16, 42, 73, 98, 33, 76, 72, 119, 56, 34, 85, 89, 44, 91, 41, 145, 11, 59, 117, 93, 81, 49, 125, 80, 101, 116, 141, 96, 130, 102, 100, 127, 30, 51, 142, 139, 88, 121, 74, 50, 115, 148, 114, 122, 37, 147, 108, 111, 38, 104, 106, 110, 21, 35, 128, 67, 146, 135, 78, 132, 65, 129, 149, 112, 133, 60, 26, 86, 136, 144, 120, 140, 150, 87, 97, 131, 134, 77, 40, 105, 138, 118, 126, 137, 52, 84, 63, 113, 66, 99, 83, 107, 123, 103, 124, 109, 143, 94]);
% time elapsed: 0.61 s
----------
%%%mzn-stat: initTime=0.025222465
%%%mzn-stat: objective=982
%%%mzn-stat: nodes=6136
%%%mzn-stat: restarts=0
%%%mzn-stat: peakDepth=1240
%%%mzn-stat: solveTime=0.074819695
%%%mzn-stat: variables=2714
%%%mzn-stat: propagators=12975
%%%mzn-stat: failures=51
%%%mzn-stat: propagations=292933
%%%mzn-stat: nogoods=51
%%%mzn-stat: numAtomicConstraintsPropagated=0
%%%mzn-stat: circuitNumber11176PropagationsThatFoundConflict=18
%%%mzn-stat: circuitNumber11176TotalFixedEdgesAtConflict=2628
%%%mzn-stat: circuitNumber11176NumberOfConflicts=18
%%%mzn-stat: circuitNumber11176PropagationsThatPruned=13
%%%mzn-stat: circuitNumber11176PropagationsTotal=520
%%%mzn-stat: AverageConflictSize=26.529411764705884
%%%mzn-stat: NumUnitNogoodsLearned=0
%%%mzn-stat: AverageLearnedNogoodLength=54.254901960784316
%%%mzn-stat: AverageBacktrackAmount=0
%%%mzn-stat: AverageLbd=33.92156862745098
%%%mzn-stat: 2AutonomousSearchNumBackupCalled=5632
%%%mzn-stat: 2AutonomousSearchNumPredicatesRemoved=0
%%%mzn-stat: 2AutonomousSearchNumCalls=5637
%%%mzn-stat: 2AutonomousSearchNumPredicatesAdded=13448
%%%mzn-stat: 2AutonomousSearchAverageSizeOfHeap=4.064750753947135
%%%mzn-stat: 2AutonomousSearchNumAssignedPredicatesEncountered=22913
%%%mzn-stat-end
maxleg = 982;
succ = array1d(1..150,[7, 3, 10, 14, 2, 36, 46, 4, 19, 79, 5, 6, 43, 13, 92, 1, 57, 39, 15, 18, 8, 32, 25, 75, 82, 12, 17, 58, 71, 62, 23, 64, 55, 24, 20, 47, 61, 28, 53, 95, 29, 9, 22, 27, 90, 31, 45, 69, 70, 68, 48, 54, 16, 42, 73, 98, 33, 76, 72, 119, 56, 34, 85, 89, 44, 91, 41, 145, 11, 59, 117, 93, 81, 49, 125, 80, 101, 116, 141, 96, 130, 102, 100, 127, 30, 108, 142, 139, 88, 121, 74, 50, 115, 148, 114, 122, 37, 147, 52, 111, 38, 104, 106, 110, 21, 35, 128, 67, 146, 135, 78, 132, 65, 129, 149, 112, 133, 60, 26, 86, 136, 144, 120, 140, 150, 87, 97, 131, 134, 77, 40, 105, 138, 118, 126, 137, 51, 84, 63, 113, 66, 99, 83, 107, 123, 103, 124, 109, 143, 94]);
% time elapsed: 0.62 s
----------
%%%mzn-stat: initTime=0.025222465
%%%mzn-stat: objective=964
%%%mzn-stat: nodes=7286
%%%mzn-stat: restarts=0
%%%mzn-stat: peakDepth=1240
%%%mzn-stat: solveTime=0.093716776
%%%mzn-stat: variables=2714
%%%mzn-stat: propagators=12975
%%%mzn-stat: failures=60
%%%mzn-stat: propagations=348652
%%%mzn-stat: nogoods=60
%%%mzn-stat: numAtomicConstraintsPropagated=0
%%%mzn-stat: circuitNumber11176PropagationsThatFoundConflict=23
%%%mzn-stat: circuitNumber11176TotalFixedEdgesAtConflict=3378
%%%mzn-stat: circuitNumber11176NumberOfConflicts=23
%%%mzn-stat: circuitNumber11176PropagationsThatPruned=15
%%%mzn-stat: circuitNumber11176PropagationsTotal=613
%%%mzn-stat: AverageConflictSize=30.283333333333335
%%%mzn-stat: NumUnitNogoodsLearned=0
%%%mzn-stat: AverageLearnedNogoodLength=58.6
%%%mzn-stat: AverageBacktrackAmount=0
%%%mzn-stat: AverageLbd=36.38333333333333
%%%mzn-stat: 2AutonomousSearchNumBackupCalled=6694
%%%mzn-stat: 2AutonomousSearchNumPredicatesRemoved=0
%%%mzn-stat: 2AutonomousSearchNumCalls=6700
%%%mzn-stat: 2AutonomousSearchNumPredicatesAdded=17046
%%%mzn-stat: 2AutonomousSearchAverageSizeOfHeap=4.239402985074626
%%%mzn-stat: 2AutonomousSearchNumAssignedPredicatesEncountered=28404
%%%mzn-stat-end
maxleg = 964;
succ = array1d(1..150,[7, 3, 10, 14, 2, 36, 46, 4, 19, 79, 5, 6, 43, 13, 92, 1, 57, 39, 15, 18, 8, 32, 25, 75, 82, 12, 17, 58, 71, 62, 23, 64, 55, 24, 20, 47, 61, 28, 53, 95, 29, 9, 22, 27, 90, 31, 45, 69, 70, 68, 48, 54, 16, 42, 73, 98, 33, 76, 72, 119, 56, 34, 85, 89, 44, 91, 41, 145, 11, 59, 117, 93, 81, 49, 125, 80, 104, 116, 141, 96, 130, 102, 100, 127, 30, 108, 142, 139, 88, 121, 74, 50, 115, 148, 114, 122, 37, 147, 52, 111, 38, 110, 106, 101, 21, 35, 128, 67, 146, 135, 78, 132, 65, 129, 149, 112, 133, 60, 26, 86, 136, 144, 120, 140, 150, 87, 97, 131, 134, 77, 40, 105, 138, 118, 126, 137, 51, 84, 63, 113, 66, 99, 83, 107, 123, 103, 124, 109, 143, 94]);
% time elapsed: 0.65 s
----------
